W=7;
H=5;

MAX_TIME=18;
MAX_TRACKS=7;

TARGET=(3,7);

TRAINS=[(3,1,RIGHT)];
DECOYS=[];

INIT_POS=[
(2,5,STRAIGHT_TD),
(3,1,STRAIGHT_RL),
(3,5,SWITCH_T_D_R),
(3,6,STRAIGHT_RL),
(3,7,STRAIGHT_RL),
(4,5,STRAIGHT_TD),
];
TUNNEL_PAIRS=[
  (1, 3, DOWN, 5, 5, TOP),
  (1, 5, DOWN, 5, 3, TOP),
];

GATES=[
(4,5,1,false),
];
ACTIVATIONS=[
(2,5,1),
];

DSWITCHES=[];

STATIONS=[];
